# Example input file for conditionalMean

#------------------- IO CONTROL -----------------------------------------------------------
infile = plt00000 plt00001                 # Plot file
finestLevel = 0                            # DEF: finest level of plot file; Sets the 
                                           # finest level to read.
doBin = true                               # [true, false], DEF: true; infile format
                                           # (true: ".plt", false: ".dat")
outSuffix = "_conditionalMean"             # DEF: ""; Suffix to add to the pltfile name.
aja = false                                # DEF: false; Put the header in a separate file                                            # for gnuplot/matlab.
writeBinMinMax = false                     # DEF: False; Write min/max values for each bin.

#------------------- Variables ------------------------------------------------------------
binComp = 0                                # ID of variable to condition on.
avgComps = 1 2 3                           # Variable IDs to average.
binMin = 0.0                               # DEF: 0.0; Min value for bins.
binMax = 1.0                               # DEF: 1.0; Max value for bins.
bounds = -0.1 -0.1 -0.1 0.1 0.1 0.1        # DEF: all; Domain bounds
nBins = 64                                 # DEF: 64. Number of bins in PDF.
