# Example input file for isoTrim
# This tool trims a 3D isosurface mesh based on field-value or radial criteria.

#------------------- IO CONTROL -----------------------------------------------------------
infile  = plt00000_surf.mef                      # Input MEF isosurface file to be processed
outfile = plt00000_surf_trimmed.mef              # Output file for the processed isosurface

#------------------- Field-Value Trimming -------------------------------------------------
comps   = X Y(H2) RXZ                      # Component names to use for trimming. X, Y, Z are also available. 
                                           # RXY, RXZ, RYZ, RXYZ refer to the radial/spherical distance. 
signs   = gt lt gt                         # Comparison operators for each component (lt,le,gt,ge,eq)
vals    = 0.5 1.0 0.1                      # Threshold values; nodes satisfying condition are removed
rmBound = 0                                # [0, 1], DEF: 1; If 1, elements with at least one nodes satisfying condition are removed.
                                           # If 0, only elements with all nodes satisfying condition are removed.

#------------------- Output Control -------------------------------------------------------
remComps = 5 6                             # Component indices to drop from the output file

#------------------- Diagnostics ----------------------------------------------------------
do_area_stats = true                       # DEF: false, Print min/max triangle areas across the surface
